c 53 AngularJS
c 11 Maven
c 9 Server
c 15 PostgreSQL
c 36 False
c 38 Consul
c 51 MessageBroker
c 58 SearchEngine
c 30 MySql
c 39 MySQL
c 3 EhCache
c 46 Client
c 23 AuthenticationType
c 17 ServerSideOption
c 60 LibSass
c 4 HibernateCache
c 42 JWT
c 29 HTTPSession
c 59 SwaggerCodegen
c 48 SQL
c 8 ApplicationType
c 52 Angular4
c 26 Uaa
c 54 Oracle12c
c 47 MicroserviceApplication
c 1 NoDB
c 25 MongoDB
c 45 ClientFrameWork
c 21 Cucumber
c 14 Application
c 32 MariaDBDev
c 37 NoHB
c 19 H2InMemory
c 49 Gatling
c 22 Oauth2
c 33 Cassandra
c 55 SocialLogIn
c 27 H2DiskBased
c 16 ProDataBaseType
c 43 ClusteredHttpSession
c 20 MsSQL
c 5 MsSql
c 57 Oracle
c 2 DataBaseType
c 10 jhipster
c 24 ServiceDiscoveryType
c 41 MicroserviceGateway
c 31 MariaDB
c 7 Monolithic
c 50 WebSocket
c 35 HazelCast
c 6 DevDataBaseType
c 13 TestFramework
c 40 UaaServer
c 12 BuildTool
c 56 PostgreSQLDev
c 44 Protractor
c 34 Gradle
c 18 Infinispan
c 28 Eureka
p cnf 61 670
-1 2 0
-3 4 0
-5 6 0
-7 8 0
-9 10 0
-1 2 0
-11 12 0
-13 14 0
-15 16 0
-17 9 0
-18 4 0
-19 6 0
-20 16 0
-21 13 0
-1 2 0
-3 4 0
-20 16 0
-11 12 0
-22 23 0
-24 17 0
-25 2 0
-26 23 0
-27 6 0
-15 16 0
-28 24 0
-29 23 0
-30 6 0
-31 16 0
-32 6 0
-33 2 0
-1 2 0
-34 12 0
-35 4 0
-36 24 0
-27 6 0
-28 24 0
-16 17 0
-37 4 0
-38 24 0
-39 16 0
-22 23 0
-40 8 0
-39 16 0
-13 14 0
-41 8 0
-38 24 0
-25 2 0
-21 13 0
-32 6 0
-42 23 0
-42 23 0
-6 17 0
-30 6 0
-11 12 0
-4 17 0
-43 9 0
-34 12 0
-26 23 0
-35 4 0
-6 17 0
-34 12 0
-44 13 0
-5 6 0
-21 13 0
-45 46 0
-42 23 0
-22 23 0
-47 8 0
-12 17 0
-25 2 0
-18 4 0
-33 2 0
-32 6 0
-15 16 0
-39 16 0
-32 6 0
-35 4 0
-48 2 0
-49 13 0
-6 17 0
-29 23 0
-7 8 0
-47 8 0
-29 23 0
-38 24 0
-50 9 0
-16 17 0
-25 2 0
-37 4 0
-16 17 0
-51 9 0
-27 6 0
-3 4 0
-48 2 0
-6 17 0
-36 24 0
-38 24 0
-5 6 0
-7 8 0
-42 23 0
-50 9 0
-1 2 0
-16 17 0
-52 45 0
-12 17 0
-21 13 0
-52 45 0
-25 2 0
-53 45 0
-7 8 0
-1 2 0
-36 24 0
-20 16 0
-31 16 0
-19 6 0
-40 8 0
-40 8 0
-31 16 0
-15 16 0
-1 2 0
-42 23 0
-19 6 0
-35 4 0
-32 6 0
-22 23 0
-54 6 0
-1 2 0
-48 2 0
-24 17 0
-41 8 0
-38 24 0
-48 2 0
-20 16 0
-19 6 0
-21 13 0
-26 23 0
-11 12 0
-37 4 0
-55 9 0
-34 12 0
-22 23 0
-36 24 0
-53 45 0
-28 24 0
-30 6 0
-48 2 0
-28 24 0
-42 23 0
-24 17 0
-55 9 0
-56 6 0
-23 17 0
-11 12 0
-22 23 0
-31 16 0
-1 2 0
-38 24 0
-26 23 0
-34 12 0
-33 2 0
-16 17 0
-26 23 0
-19 6 0
-34 12 0
-1 2 0
-42 23 0
-38 24 0
-37 4 0
-1 2 0
-48 2 0
-18 4 0
-22 23 0
-44 13 0
-42 23 0
-11 12 0
-22 23 0
-18 4 0
-7 8 0
-23 17 0
-50 9 0
-7 8 0
-29 23 0
-44 13 0
-17 9 0
-57 16 0
-33 2 0
-2 17 0
-15 16 0
-56 6 0
-26 23 0
-48 2 0
-38 24 0
-18 4 0
-49 13 0
-48 2 0
-26 23 0
-36 24 0
-54 6 0
-31 16 0
-16 17 0
-19 6 0
-33 2 0
-34 12 0
-38 24 0
-39 16 0
-13 14 0
-29 23 0
-4 17 0
-30 6 0
-3 4 0
-47 8 0
-11 12 0
-2 17 0
-5 6 0
-18 4 0
-57 16 0
-4 17 0
-44 13 0
-29 23 0
-12 17 0
-40 8 0
-38 24 0
-44 13 0
-2 17 0
-5 6 0
-37 4 0
-35 4 0
-6 17 0
-1 2 0
-24 17 0
-23 17 0
-42 23 0
-54 6 0
-6 17 0
-11 12 0
-57 16 0
-11 12 0
-39 16 0
-52 45 0
-34 12 0
-33 2 0
-30 6 0
-56 6 0
-35 4 0
-39 16 0
-23 17 0
-20 16 0
-18 4 0
-3 4 0
-39 16 0
-25 2 0
-1 2 0
-57 16 0
-51 9 0
-22 23 0
-51 9 0
-56 6 0
-41 8 0
-26 23 0
-37 4 0
-28 24 0
-46 10 0
-39 16 0
-34 12 0
-35 4 0
-40 8 0
-57 16 0
-23 17 0
-33 2 0
-32 6 0
-49 13 0
-11 12 0
-55 9 0
-8 14 0
-2 17 0
-46 10 0
-7 8 0
-25 2 0
-21 13 0
-58 9 0
-16 17 0
-50 9 0
-34 12 0
-48 2 0
-31 16 0
-38 24 0
-27 6 0
-24 17 0
-26 23 0
-34 12 0
-34 12 0
-4 17 0
-34 12 0
-22 23 0
-29 23 0
-27 6 0
-22 23 0
-56 6 0
-17 9 0
-41 8 0
-21 13 0
-11 12 0
-21 13 0
-2 17 0
-29 23 0
-22 23 0
-6 17 0
-49 13 0
-35 4 0
-32 6 0
-35 4 0
-8 14 0
-37 4 0
-34 12 0
-24 17 0
-3 4 0
-7 8 0
-47 8 0
-48 2 0
-47 8 0
-22 23 0
-6 17 0
-59 9 0
-38 24 0
-42 23 0
-47 8 0
-41 8 0
-28 24 0
-30 6 0
-26 23 0
-4 17 0
-38 24 0
-33 2 0
-35 4 0
-38 24 0
-42 23 0
-19 6 0
-28 24 0
-28 24 0
-20 16 0
-56 6 0
-28 24 0
-3 4 0
-17 9 0
-2 17 0
-53 45 0
-60 46 0
-18 4 0
-36 24 0
-26 23 0
-56 6 0
-25 2 0
-43 9 0
-15 16 0
-36 24 0
-37 4 0
-31 16 0
-28 24 0
-48 2 0
-52 45 0
-4 17 0
-4 17 0
-12 17 0
-55 9 0
-43 9 0
-42 23 0
-18 4 0
-36 24 0
-35 4 0
-4 17 0
-35 4 0
-33 2 0
-33 2 0
-12 17 0
-25 2 0
-49 13 0
-37 4 0
-15 16 0
-57 16 0
-11 12 0
-24 17 0
-3 4 0
-41 8 0
-33 2 0
-2 17 0
-1 2 0
-3 4 0
-54 6 0
-37 4 0
-33 2 0
-3 4 0
-48 2 0
-25 2 0
-2 17 0
-18 4 0
-22 23 0
-11 12 0
-9 10 0
-59 9 0
-59 9 0
-51 9 0
-25 2 0
-36 24 0
-22 23 0
-32 6 0
-35 4 0
-23 17 0
-43 9 0
-37 4 0
-18 4 0
-42 23 0
-28 24 0
-47 8 0
-15 16 0
-34 12 0
-59 9 0
-36 24 0
-36 24 0
-54 6 0
-42 23 0
-48 2 0
-1 2 0
-29 23 0
-42 23 0
-11 12 0
-49 13 0
-38 24 0
-27 6 0
-5 6 0
-44 13 0
-20 16 0
-18 4 0
-40 8 0
-40 8 0
-3 4 0
-36 24 0
-23 17 0
-11 12 0
-28 24 0
-34 12 0
-54 6 0
-24 17 0
-58 9 0
-49 13 0
-57 16 0
-33 2 0
-25 2 0
-27 6 0
-44 13 0
-41 8 0
-36 24 0
-26 23 0
-3 4 0
-13 14 0
-36 24 0
-37 4 0
-54 6 0
-12 17 0
-8 14 0
-35 4 0
-56 6 0
-25 2 0
-3 4 0
-29 23 0
-30 6 0
-40 8 0
-48 2 0
-48 2 0
-35 4 0
-26 23 0
-18 4 0
-36 24 0
-38 24 0
-18 4 0
-47 8 0
-57 16 0
-35 4 0
-29 23 0
-30 6 0
-5 6 0
-33 2 0
-16 17 0
-25 2 0
-8 14 0
-5 6 0
-23 17 0
-48 2 0
-26 23 0
-12 17 0
-25 2 0
-25 2 0
-3 4 0
-29 23 0
-60 46 0
-22 23 0
-28 24 0
-26 23 0
-41 8 0
-1 2 0
-14 10 0
-28 24 0
-26 23 0
-20 16 0
-33 2 0
-11 12 0
-3 4 0
-54 6 0
-28 24 0
-37 4 0
-58 9 0
-29 23 0
-14 10 0
-31 16 0
-42 23 0
-29 23 0
-49 13 0
-19 6 0
-18 4 0
-37 4 0
-27 6 0
-18 4 0
-58 9 0
-28 24 0
-45 46 0
-37 4 0
-44 13 0
-36 24 0
-29 23 0
-29 23 0
-12 17 0
-37 4 0
-53 45 0
-33 2 0
-3 4 0
10 0
-23 29 26 22 42 0
-26 -42 0
-26 -22 0
-22 -42 0
-29 -22 0
-29 -26 0
-29 -42 0
-17 12 0
-12 34 11 0
-34 -11 0
-46 45 0
-14 8 0
-6 54 19 56 32 5 30 27 0
-32 -5 0
-32 -30 0
-19 -32 0
-32 -27 0
-5 -30 0
-54 -5 0
-56 -32 0
-54 -32 0
-56 -27 0
-30 -27 0
-54 -27 0
-5 -27 0
-19 -5 0
-19 -30 0
-54 -56 0
-54 -19 0
-54 -30 0
-56 -30 0
-19 -56 0
-19 -27 0
-56 -5 0
61 10 0
-8 41 7 47 40 0
-41 -47 0
-41 -7 0
-7 -47 0
-47 -40 0
-41 -40 0
-7 -40 0
-14 13 0
-17 4 0
-16 39 20 57 31 15 0
-20 -57 0
-20 -31 0
-39 -20 0
-20 -15 0
-39 -31 0
-39 -57 0
-31 -15 0
-57 -31 0
-39 -15 0
-57 -15 0
-45 53 52 0
-53 -52 0
-9 17 0
-24 38 28 36 0
-38 -28 0
-38 -36 0
-28 -36 0
-10 9 0
-10 14 0
-17 24 0
-2 48 1 33 25 0
-48 -33 0
-33 -25 0
-48 -1 0
-48 -25 0
-1 -33 0
-1 -25 0
-17 2 0
-17 23 0
-4 18 37 35 3 0
-18 -3 0
-37 -35 0
-37 -3 0
-18 -37 0
-35 -3 0
-18 -35 0
-7 -26 0
-25 41 37 0
-33 41 37 0
-1 37 0
48 -58 0
-48 -20 27 19 5 0
-41 35 0
-47 -46 0
-47 21 0
-47 49 0
-47 -44 0
-40 -46 0
-40 21 0
-40 49 0
-40 -44 0
7 41 -43 0
37 35 -43 0
7 41 -50 0
-57 0
-5 0
-48 -57 27 19 54 0
-20 0
-48 -39 27 19 30 0
-54 0
-40 26 0
47 26 -1 0
47 41 -1 0
-32 0
-7 36 28 0
-48 -31 27 19 32 0
-31 0
-48 16 0
-22 48 25 0
-48 -15 27 19 56 0
-33 -55 0
7 -55 0
29 42 -55 0
-41 42 26 0
-47 42 26 0
-25 -6 0
-25 -16 0
-33 -6 0
-33 -16 0
-1 -6 0
-1 -16 0
-28 26 42 0
-7 46 0
-7 21 0
-7 44 0
-7 49 0
-41 46 0
-41 21 0
-41 44 0
-41 49 0
